unknown 561 2 561 100000000
2 2 2 2 2 2 2 2 2 2 2 2 2 2 2 2 2 2 2 2 2 2 2 2 2 2 2 2 2 2 2 2 2 2 2 2 2 2 2 2 2 2 2 2 2 2 2 2 2 2 2 2 2 2 2 2 2 2 2 2 2 2 2 2 2 2 2 2 2 2 2 2 2 2 2 2 2 2 2 2 2 2 2 2 2 2 2 2 2 2 2 2 2 2 2 2 2 2 2 2 2 2 2 2 2 2 2 2 2 2 2 2 2 2 2 2 2 2 2 2 2 2 2 2 2 2 2 2 2 2 2 2 2 2 2 2 2 2 2 2 2 2 2 2 2 2 2 2 2 2 2 2 2 2 2 2 2 2 2 2 2 2 2 2 2 2 2 2 2 2 2 2 2 2 2 2 2 2 2 2 2 2 2 2 2 2 2 2 2 2 2 2 2 2 2 2 2 2 2 2 2 2 2 2 2 2 2 2 2 2 2 2 2 2 2 2 2 2 2 2 2 2 2 2 2 2 2 2 2 2 2 2 2 2 2 2 2 2 2 2 2 2 2 2 2 2 2 2 2 2 2 2 2 2 2 2 2 2 2 2 2 2 2 2 2 2 2 2 2 2 2 2 2 2 2 2 2 2 2 2 2 2 2 2 2 2 2 2 2 2 2 2 2 2 2 2 2 2 2 2 2 2 2 2 2 2 2 2 2 2 2 2 2 2 2 2 2 2 2 2 2 2 2 2 2 2 2 2 2 2 2 2 2 2 2 2 2 2 2 2 2 2 2 2 2 2 2 2 2 2 2 2 2 2 2 2 2 2 2 2 2 2 2 2 2 2 2 2 2 2 2 2 2 2 2 2 2 2 2 2 2 2 2 2 2 2 2 2 2 2 2 2 2 2 2 2 2 2 2 2 2 2 2 2 2 2 2 2 2 2 2 2 2 2 2 2 2 2 2 2 2 2 2 2 2 2 2 2 2 2 2 2 2 2 2 2 2 2 2 2 2 2 2 2 2 2 2 2 2 2 2 2 2 2 2 2 2 2 2 2 2 2 2 2 2 2 2 2 2 2 2 2 2 2 2 2 2 2 2 2 2 2 2 2 2 2 2 2 2 2 2 2 2 2 2 2 2 2 2 2 2 2 2 2 2 2 2 2 2 2 2 2 2 2 2 2 2 2 2 2 2 2 2 2 2 2 2 2 2 2 2 2 2 2 2 2 2 2 2 2 2 2 2 2 2 2 2 2 2 2 2 2 2 2 2 2 2 2 2 2 2
1 0 0 1
1 1
1 1 0 1
0 8
1 2 0 2
0 9
1 7
3 299 127 3 0 4
0 0 0 100
0 1 0 100
1 0 0 100
1 1 1 100
3 208 319 4 0 4
0 0 0 100
0 1 0 100
1 0 0 100
1 1 1 100
4 232 173 117 5 0 8
0 0 0 0 100
0 0 1 0 100
0 1 0 0 100
0 1 1 0 100
1 0 0 0 100
1 0 1 0 100
1 1 0 0 100
1 1 1 1 100
4 460 503 209 6 0 8
0 0 0 0 100
0 0 1 0 100
0 1 0 0 100
0 1 1 0 100
1 0 0 0 100
1 0 1 0 100
1 1 0 0 100
1 1 1 1 100
4 27 145 147 7 0 8
0 0 0 0 100
0 0 1 0 100
0 1 0 0 100
0 1 1 0 100
1 0 0 0 100
1 0 1 0 100
1 1 0 0 100
1 1 1 1 100
3 233 180 8 0 4
0 0 1 100
0 1 0 100
1 0 0 100
1 1 0 100
3 273 274 9 0 4
0 0 1 100
0 1 0 100
1 0 0 100
1 1 0 100
2 382 10 0 2
0 0 100
1 1 100
3 260 261 11 0 4
0 0 1 100
0 1 0 100
1 0 0 100
1 1 0 100
3 176 126 12 0 4
0 0 0 100
0 1 0 100
1 0 0 100
1 1 1 100
1 13 0 1
0 8
3 318 321 14 0 4
0 0 1 100
0 1 0 100
1 0 0 100
1 1 0 100
3 120 124 15 0 4
0 0 0 100
0 1 0 100
1 0 0 100
1 1 1 100
3 514 220 16 0 4
0 0 0 100
0 1 0 100
1 0 0 100
1 1 1 100
3 307 309 17 0 4
0 0 0 100
0 1 0 100
1 0 0 100
1 1 1 100
3 303 304 18 0 4
0 0 1 100
0 1 0 100
1 0 0 100
1 1 0 100
4 383 384 385 19 0 8
0 0 0 1 100
0 0 1 0 100
0 1 0 0 100
0 1 1 0 100
1 0 0 0 100
1 0 1 0 100
1 1 0 0 100
1 1 1 0 100
3 493 525 20 0 4
0 0 0 100
0 1 0 100
1 0 0 100
1 1 1 100
3 106 319 21 0 4
0 0 0 100
0 1 0 100
1 0 0 100
1 1 1 100
3 250 251 22 0 4
0 0 1 100
0 1 0 100
1 0 0 100
1 1 0 100
3 191 192 23 0 4
0 0 0 100
0 1 0 100
1 0 0 100
1 1 1 100
1 24 0 2
0 3
1 7
3 202 203 25 0 4
0 0 0 100
0 1 0 100
1 0 0 100
1 1 1 100
3 362 363 26 0 4
0 0 1 100
0 1 0 100
1 0 0 100
1 1 0 100
3 453 208 27 0 4
0 0 0 100
0 1 0 100
1 0 0 100
1 1 1 100
2 27 28 0 2
0 0 100
1 1 100
2 113 29 0 2
0 0 100
1 1 100
2 320 30 0 2
0 0 100
1 1 100
3 279 280 31 0 4
0 0 1 100
0 1 0 100
1 0 0 100
1 1 0 100
3 310 175 32 0 4
0 0 0 100
0 1 0 100
1 0 0 100
1 1 1 100
5 337 338 339 340 33 0 16
0 0 0 0 1 100
0 0 0 1 0 100
0 0 1 0 0 100
0 0 1 1 0 100
0 1 0 0 0 100
0 1 0 1 0 100
0 1 1 0 0 100
0 1 1 1 0 100
1 0 0 0 0 100
1 0 0 1 0 100
1 0 1 0 0 100
1 0 1 1 0 100
1 1 0 0 0 100
1 1 0 1 0 100
1 1 1 0 0 100
1 1 1 1 0 100
3 458 427 34 0 4
0 0 0 100
0 1 0 100
1 0 0 100
1 1 1 100
1 35 0 2
0 5
1 8
2 525 36 0 2
0 0 100
1 1 100
3 296 298 37 0 4
0 0 1 100
0 1 0 100
1 0 0 100
1 1 0 100
2 342 38 0 2
0 0 100
1 1 100
3 358 359 39 0 4
0 0 1 100
0 1 0 100
1 0 0 100
1 1 0 100
3 208 427 40 0 4
0 0 0 100
0 1 0 100
1 0 0 100
1 1 1 100
2 40 41 0 2
0 0 100
1 1 100
3 129 131 42 0 4
0 0 0 100
0 1 0 100
1 0 0 100
1 1 1 100
3 262 263 43 0 4
0 0 1 100
0 1 0 100
1 0 0 100
1 1 0 100
3 392 170 44 0 4
0 0 0 100
0 1 0 100
1 0 0 100
1 1 1 100
3 367 368 45 0 4
0 0 1 100
0 1 0 100
1 0 0 100
1 1 0 100
2 242 46 0 2
0 0 100
1 1 100
3 268 269 47 0 4
0 0 1 100
0 1 0 100
1 0 0 100
1 1 0 100
3 324 325 48 0 4
0 0 1 100
0 1 0 100
1 0 0 100
1 1 0 100
4 165 99 166 49 0 8
0 0 0 0 100
0 0 1 0 100
0 1 0 0 100
0 1 1 0 100
1 0 0 0 100
1 0 1 0 100
1 1 0 0 100
1 1 1 1 100
4 122 159 160 50 0 8
0 0 0 0 100
0 0 1 0 100
0 1 0 0 100
0 1 1 0 100
1 0 0 0 100
1 0 1 0 100
1 1 0 0 100
1 1 1 1 100
3 349 350 51 0 4
0 0 1 100
0 1 0 100
1 0 0 100
1 1 0 100
3 249 76 52 0 4
0 0 1 100
0 1 0 100
1 0 0 100
1 1 0 100
3 255 256 53 0 4
0 0 1 100
0 1 0 100
1 0 0 100
1 1 0 100
4 380 381 0 54 0 8
0 0 0 0 100
0 0 1 0 100
0 1 0 0 100
0 1 1 0 100
1 0 0 0 100
1 0 1 0 100
1 1 0 0 100
1 1 1 1 100
2 553 55 0 2
0 0 100
1 1 100
3 213 214 56 0 4
0 0 1 100
0 1 0 100
1 0 0 100
1 1 0 100
3 215 107 57 0 4
0 0 0 100
0 1 0 100
1 0 0 100
1 1 1 100
4 216 217 218 58 0 8
0 0 0 1 100
0 0 1 0 100
0 1 0 0 100
0 1 1 0 100
1 0 0 0 100
1 0 1 0 100
1 1 0 0 100
1 1 1 0 100
2 453 59 0 2
0 0 100
1 1 100
3 24 414 60 0 4
0 0 0 100
0 1 1 100
1 0 1 100
1 1 1 100
3 35 407 61 0 4
0 0 0 100
0 1 1 100
1 0 1 100
1 1 1 100
3 24 476 62 0 4
0 0 0 100
0 1 1 100
1 0 1 100
1 1 1 100
3 35 409 63 0 4
0 0 0 100
0 1 1 100
1 0 1 100
1 1 1 100
3 452 188 64 0 4
0 0 0 100
0 1 1 100
1 0 1 100
1 1 1 100
3 493 61 65 0 4
0 0 0 100
0 1 0 100
1 0 0 100
1 1 1 100
2 67 66 0 2
0 0 100
1 1 100
3 227 506 67 0 4
0 0 0 100
0 1 0 100
1 0 0 100
1 1 1 100
3 91 425 68 0 4
0 0 0 100
0 1 1 100
1 0 1 100
1 1 1 100
3 0 319 69 0 4
0 0 0 100
0 1 1 100
1 0 1 100
1 1 1 100
3 463 2 70 0 4
0 0 0 100
0 1 1 100
1 0 1 100
1 1 1 100
2 460 71 0 2
0 0 100
1 1 100
3 503 428 72 0 4
0 0 0 100
0 1 0 100
1 0 0 100
1 1 1 100
2 74 73 0 2
0 0 100
1 1 100
3 509 128 74 0 4
0 0 0 100
0 1 0 100
1 0 0 100
1 1 1 100
3 427 503 75 0 4
0 0 0 100
0 1 1 100
1 0 1 100
1 1 1 100
2 77 76 0 2
0 0 100
1 1 100
3 487 93 77 0 4
0 0 0 100
0 1 0 100
1 0 0 100
1 1 1 100
2 77 78 0 2
0 0 100
1 1 100
2 422 79 0 2
0 0 100
1 1 100
2 423 80 0 2
0 0 100
1 1 100
3 521 429 81 0 4
0 0 0 100
0 1 1 100
1 0 1 100
1 1 1 100
3 319 421 82 0 4
0 0 0 100
0 1 1 100
1 0 1 100
1 1 1 100
2 272 83 0 2
0 0 100
1 1 100
3 452 319 84 0 4
0 0 0 100
0 1 1 100
1 0 1 100
1 1 1 100
3 474 187 85 0 4
0 0 0 100
0 1 1 100
1 0 1 100
1 1 1 100
2 87 86 0 2
0 0 100
1 1 100
3 106 512 87 0 4
0 0 0 100
0 1 0 100
1 0 0 100
1 1 1 100
3 24 496 88 0 4
0 0 0 100
0 1 1 100
1 0 1 100
1 1 1 100
3 243 208 89 0 4
0 0 0 100
0 1 1 100
1 0 1 100
1 1 1 100
4 474 35 426 90 0 8
0 0 0 0 100
0 0 1 1 100
0 1 0 1 100
0 1 1 1 100
1 0 0 1 100
1 0 1 1 100
1 1 0 1 100
1 1 1 1 100
3 456 90 91 0 4
0 0 0 100
0 1 0 100
1 0 0 100
1 1 1 100
3 189 430 92 0 4
0 0 0 100
0 1 1 100
1 0 1 100
1 1 1 100
3 35 419 93 0 4
0 0 0 100
0 1 1 100
1 0 1 100
1 1 1 100
3 476 420 94 0 4
0 0 0 100
0 1 1 100
1 0 1 100
1 1 1 100
3 453 472 95 0 4
0 0 0 100
0 1 1 100
1 0 1 100
1 1 1 100
3 503 13 96 0 4
0 0 0 100
0 1 1 100
1 0 1 100
1 1 1 100
3 525 408 97 0 4
0 0 0 100
0 1 1 100
1 0 1 100
1 1 1 100
2 99 98 0 2
0 0 100
1 1 100
3 493 209 99 0 4
0 0 1 100
0 1 0 100
1 0 0 100
1 1 0 100
3 188 178 100 0 4
0 0 0 100
0 1 1 100
1 0 1 100
1 1 1 100
3 452 40 101 0 4
0 0 0 100
0 1 1 100
1 0 1 100
1 1 1 100
4 427 473 521 102 0 8
0 0 0 0 100
0 0 1 1 100
0 1 0 1 100
0 1 1 1 100
1 0 0 1 100
1 0 1 1 100
1 1 0 1 100
1 1 1 1 100
3 473 139 103 0 4
0 0 0 100
0 1 1 100
1 0 1 100
1 1 1 100
3 451 208 104 0 4
0 0 0 100
0 1 1 100
1 0 1 100
1 1 1 100
2 107 105 0 2
0 0 100
1 1 100
1 106 0 2
0 3
1 3
3 458 460 107 0 4
0 0 0 100
0 1 0 100
1 0 0 100
1 1 1 100
3 459 472 108 0 4
0 0 0 100
0 1 1 100
1 0 1 100
1 1 1 100
3 2 497 109 0 4
0 0 0 100
0 1 1 100
1 0 1 100
1 1 1 100
2 111 110 0 2
0 0 100
1 1 100
3 452 522 111 0 4
0 0 0 100
0 1 0 100
1 0 0 100
1 1 1 100
3 460 27 112 0 4
0 0 0 100
0 1 1 100
1 0 1 100
1 1 1 100
3 194 455 113 0 4
0 0 0 100
0 1 0 100
1 0 0 100
1 1 1 100
2 115 114 0 2
0 0 100
1 1 100
3 501 136 115 0 4
0 0 0 100
0 1 0 100
1 0 0 100
1 1 1 100
3 1 455 116 0 4
0 0 0 100
0 1 1 100
1 0 1 100
1 1 1 100
3 451 179 117 0 4
0 0 0 100
0 1 0 100
1 0 0 100
1 1 1 100
3 493 181 118 0 4
0 0 0 100
0 1 1 100
1 0 1 100
1 1 1 100
2 120 119 0 2
0 0 100
1 1 100
3 498 182 120 0 4
0 0 0 100
0 1 0 100
1 0 0 100
1 1 1 100
2 122 121 0 2
0 0 100
1 1 100
4 41 483 119 122 0 8
0 0 0 0 100
0 0 1 0 100
0 1 0 0 100
0 1 1 0 100
1 0 0 0 100
1 0 1 0 100
1 1 0 0 100
1 1 1 1 100
3 319 427 123 0 4
0 0 0 100
0 1 1 100
1 0 1 100
1 1 1 100
3 428 137 124 0 4
0 0 0 100
0 1 0 100
1 0 0 100
1 1 1 100
3 459 124 125 0 4
0 0 0 100
0 1 1 100
1 0 1 100
1 1 1 100
3 455 483 126 0 4
0 0 0 100
0 1 0 100
1 0 0 100
1 1 1 100
3 503 505 127 0 4
0 0 0 100
0 1 0 100
1 0 0 100
1 1 1 100
2 129 128 0 2
0 0 100
1 1 100
3 465 2 129 0 4
0 0 0 100
0 1 0 100
1 0 0 100
1 1 1 100
2 131 130 0 2
0 0 100
1 1 100
3 465 220 131 0 4
0 0 1 100
0 1 0 100
1 0 0 100
1 1 0 100
3 503 514 132 0 4
0 0 0 100
0 1 1 100
1 0 1 100
1 1 1 100
3 458 492 133 0 4
0 0 0 100
0 1 0 100
1 0 0 100
1 1 1 100
3 427 107 134 0 4
0 0 0 100
0 1 1 100
1 0 1 100
1 1 1 100
2 455 135 0 2
0 0 100
1 1 100
3 1 453 136 0 4
0 0 0 100
0 1 1 100
1 0 1 100
1 1 1 100
3 514 417 137 0 4
0 0 0 100
0 1 1 100
1 0 1 100
1 1 1 100
2 139 138 0 2
0 0 100
1 1 100
3 468 70 139 0 4
0 0 0 100
0 1 0 100
1 0 0 100
1 1 1 100
3 453 41 140 0 4
0 0 0 100
0 1 0 100
1 0 0 100
1 1 1 100
2 142 141 0 2
0 0 100
1 1 100
3 493 468 142 0 4
0 0 0 100
0 1 0 100
1 0 0 100
1 1 1 100
2 181 143 0 2
0 0 100
1 1 100
4 2 509 108 144 0 8
0 0 0 0 100
0 0 1 0 100
0 1 0 0 100
0 1 1 0 100
1 0 0 0 100
1 0 1 0 100
1 1 0 0 100
1 1 1 1 100
3 106 455 145 0 4
0 0 0 100
0 1 0 100
1 0 0 100
1 1 1 100
3 503 465 146 0 4
0 0 0 100
0 1 0 100
1 0 0 100
1 1 1 100
3 319 40 147 0 4
0 0 0 100
0 1 0 100
1 0 0 100
1 1 1 100
3 2 13 148 0 4
0 0 0 100
0 1 1 100
1 0 1 100
1 1 1 100
3 394 396 149 0 4
0 0 1 100
0 1 0 100
1 0 0 100
1 1 0 100
4 284 182 253 150 0 8
0 0 0 0 100
0 0 1 0 100
0 1 0 0 100
0 1 1 0 100
1 0 0 0 100
1 0 1 0 100
1 1 0 0 100
1 1 1 1 100
3 288 65 151 0 4
0 0 1 100
0 1 0 100
1 0 0 100
1 1 0 100
3 514 253 152 0 4
0 0 0 100
0 1 0 100
1 0 0 100
1 1 1 100
3 477 92 153 0 4
0 0 0 100
0 1 0 100
1 0 0 100
1 1 1 100
5 397 398 399 400 154 0 16
0 0 0 0 0 100
0 0 0 1 1 100
0 0 1 0 1 100
0 0 1 1 1 100
0 1 0 0 1 100
0 1 0 1 1 100
0 1 1 0 1 100
0 1 1 1 1 100
1 0 0 0 1 100
1 0 0 1 1 100
1 0 1 0 1 100
1 0 1 1 1 100
1 1 0 0 1 100
1 1 0 1 1 100
1 1 1 0 1 100
1 1 1 1 1 100
3 460 275 155 0 4
0 0 0 100
0 1 0 100
1 0 0 100
1 1 1 100
4 13 180 108 156 0 8
0 0 0 0 100
0 0 1 0 100
0 1 0 0 100
0 1 1 0 100
1 0 0 0 100
1 0 1 0 100
1 1 0 0 100
1 1 1 1 100
3 35 454 157 0 4
0 0 0 100
0 1 0 100
1 0 0 100
1 1 1 100
3 476 231 158 0 4
0 0 0 100
0 1 0 100
1 0 0 100
1 1 1 100
5 208 13 264 123 159 0 16
0 0 0 0 0 100
0 0 0 1 0 100
0 0 1 0 0 100
0 0 1 1 0 100
0 1 0 0 0 100
0 1 0 1 0 100
0 1 1 0 0 100
0 1 1 1 0 100
1 0 0 0 0 100
1 0 0 1 0 100
1 0 1 0 0 100
1 0 1 1 0 100
1 1 0 0 0 100
1 1 0 1 0 100
1 1 1 0 0 100
1 1 1 1 1 100
3 522 125 160 0 4
0 0 0 100
0 1 0 100
1 0 0 100
1 1 1 100
3 1 58 161 0 4
0 0 0 100
0 1 0 100
1 0 0 100
1 1 1 100
4 219 106 460 162 0 8
0 0 0 0 100
0 0 1 0 100
0 1 0 0 100
0 1 1 0 100
1 0 0 0 100
1 0 1 0 100
1 1 0 0 100
1 1 1 1 100
3 319 502 163 0 4
0 0 0 100
0 1 0 100
1 0 0 100
1 1 1 100
3 470 137 164 0 4
0 0 0 100
0 1 0 100
1 0 0 100
1 1 1 100
4 391 6 130 165 0 8
0 0 0 0 100
0 0 1 0 100
0 1 0 0 100
0 1 1 0 100
1 0 0 0 100
1 0 1 0 100
1 1 0 0 100
1 1 1 1 100
3 36 132 166 0 4
0 0 0 100
0 1 0 100
1 0 0 100
1 1 1 100
4 459 460 97 167 0 8
0 0 0 0 100
0 0 1 0 100
0 1 0 0 100
0 1 1 0 100
1 0 0 0 100
1 0 1 0 100
1 1 0 0 100
1 1 1 1 100
3 190 459 168 0 4
0 0 1 100
0 1 0 100
1 0 0 100
1 1 0 100
3 458 185 169 0 4
0 0 0 100
0 1 0 100
1 0 0 100
1 1 1 100
3 0 535 170 0 4
0 0 0 100
0 1 0 100
1 0 0 100
1 1 1 100
3 134 148 171 0 4
0 0 0 100
0 1 0 100
1 0 0 100
1 1 1 100
2 428 172 0 2
0 0 100
1 1 100
3 455 532 173 0 4
0 0 0 100
0 1 0 100
1 0 0 100
1 1 1 100
3 468 519 174 0 4
0 0 0 100
0 1 0 100
1 0 0 100
1 1 1 100
3 13 17 175 0 4
0 0 0 100
0 1 0 100
1 0 0 100
1 1 1 100
3 278 460 176 0 4
0 0 1 100
0 1 0 100
1 0 0 100
1 1 0 100
3 259 111 177 0 4
0 0 0 100
0 1 0 100
1 0 0 100
1 1 1 100
3 1 319 178 0 4
0 0 0 100
0 1 0 100
1 0 0 100
1 1 1 100
2 178 179 0 2
0 0 100
1 1 100
3 237 238 180 0 4
0 0 0 100
0 1 0 100
1 0 0 100
1 1 1 100
3 503 2 181 0 4
0 0 0 100
0 1 0 100
1 0 0 100
1 1 1 100
2 181 182 0 2
0 0 100
1 1 100
4 208 476 46 183 0 8
0 0 0 0 100
0 0 1 0 100
0 1 0 0 100
0 1 1 0 100
1 0 0 0 100
1 0 1 0 100
1 1 0 0 100
1 1 1 1 100
4 313 314 516 184 0 8
0 0 0 0 100
0 0 1 0 100
0 1 0 0 100
0 1 1 0 100
1 0 0 0 100
1 0 1 0 100
1 1 0 0 100
1 1 1 1 100
3 245 246 185 0 4
0 0 0 100
0 1 0 100
1 0 0 100
1 1 1 100
3 228 72 186 0 4
0 0 1 100
0 1 0 100
1 0 0 100
1 1 0 100
3 386 154 187 0 4
0 0 0 100
0 1 0 100
1 0 0 100
1 1 1 100
3 454 466 188 0 4
0 0 0 100
0 1 0 100
1 0 0 100
1 1 1 100
2 188 189 0 2
0 0 100
1 1 100
3 27 126 190 0 4
0 0 1 100
0 1 1 100
1 0 1 100
1 1 0 100
4 459 179 188 191 0 8
0 0 0 1 100
0 0 1 0 100
0 1 0 0 100
0 1 1 0 100
1 0 0 0 100
1 0 1 0 100
1 1 0 0 100
1 1 1 0 100
3 427 405 192 0 4
0 0 1 100
0 1 0 100
1 0 0 100
1 1 0 100
3 525 473 193 0 4
0 0 1 100
0 1 0 100
1 0 0 100
1 1 0 100
3 453 516 194 0 4
0 0 1 100
0 1 0 100
1 0 0 100
1 1 0 100
3 1 459 195 0 4
0 0 1 100
0 1 0 100
1 0 0 100
1 1 0 100
4 106 23 62 196 0 8
0 0 0 1 100
0 0 1 1 100
0 1 0 1 100
0 1 1 1 100
1 0 0 1 100
1 0 1 1 100
1 1 0 1 100
1 1 1 0 100
1 197 0 2
0 3
1 8
4 21 41 63 198 0 8
0 0 0 1 100
0 0 1 1 100
0 1 0 1 100
0 1 1 1 100
1 0 0 1 100
1 0 1 1 100
1 1 0 1 100
1 1 1 0 100
3 44 61 199 0 4
0 0 1 100
0 1 1 100
1 0 1 100
1 1 0 100
3 470 509 200 0 4
0 0 1 100
0 1 0 100
1 0 0 100
1 1 0 100
3 503 473 201 0 4
0 0 1 100
0 1 0 100
1 0 0 100
1 1 0 100
4 1 21 188 202 0 8
0 0 0 1 100
0 0 1 0 100
0 1 0 0 100
0 1 1 0 100
1 0 0 0 100
1 0 1 0 100
1 1 0 0 100
1 1 1 0 100
3 27 418 203 0 4
0 0 1 100
0 1 0 100
1 0 0 100
1 1 0 100
3 524 410 204 0 4
0 0 1 100
0 1 0 100
1 0 0 100
1 1 0 100
3 498 181 205 0 4
0 0 1 100
0 1 0 100
1 0 0 100
1 1 0 100
3 427 424 206 0 4
0 0 1 100
0 1 0 100
1 0 0 100
1 1 0 100
2 547 207 0 2
0 0 100
1 1 100
1 208 0 2
0 9
1 4
1 209 0 2
0 5
1 1
3 522 533 210 0 4
0 0 1 100
0 1 0 100
1 0 0 100
1 1 0 100
3 27 412 211 0 4
0 0 1 100
0 1 0 100
1 0 0 100
1 1 0 100
3 319 460 212 0 4
0 0 1 100
0 1 0 100
1 0 0 100
1 1 0 100
2 557 213 0 2
0 0 100
1 1 100
3 450 64 214 0 4
0 0 1 100
0 1 1 100
1 0 1 100
1 1 0 100
3 455 483 215 0 4
0 0 1 100
0 1 0 100
1 0 0 100
1 1 0 100
3 455 512 216 0 4
0 0 1 100
0 1 1 100
1 0 1 100
1 1 0 100
3 493 7 217 0 4
0 0 1 100
0 1 1 100
1 0 1 100
1 1 0 100
3 427 57 218 0 4
0 0 1 100
0 1 1 100
1 0 1 100
1 1 0 100
2 541 219 0 2
0 0 100
1 1 100
1 220 0 1
1 3
3 453 41 221 0 4
0 0 1 100
0 1 0 100
1 0 0 100
1 1 0 100
4 0 84 85 222 0 8
0 0 0 1 100
0 0 1 1 100
0 1 0 1 100
0 1 1 1 100
1 0 0 1 100
1 0 1 1 100
1 1 0 1 100
1 1 1 0 100
3 86 88 223 0 4
0 0 1 100
0 1 1 100
1 0 1 100
1 1 0 100
3 452 401 224 0 4
0 0 1 100
0 1 0 100
1 0 0 100
1 1 0 100
3 458 490 225 0 4
0 0 1 100
0 1 0 100
1 0 0 100
1 1 0 100
3 157 158 226 0 4
0 0 1 100
0 1 1 100
1 0 1 100
1 1 0 100
3 463 468 227 0 4
0 0 1 100
0 1 0 100
1 0 0 100
1 1 0 100
3 65 152 228 0 4
0 0 1 100
0 1 1 100
1 0 1 100
1 1 0 100
4 493 514 139 229 0 8
0 0 0 1 100
0 0 1 0 100
0 1 0 0 100
0 1 1 0 100
1 0 0 0 100
1 0 1 0 100
1 1 0 0 100
1 1 1 0 100
3 460 415 230 0 4
0 0 1 100
0 1 0 100
1 0 0 100
1 1 0 100
1 231 0 2
0 2
1 7
3 510 179 232 0 4
0 0 1 100
0 1 0 100
1 0 0 100
1 1 0 100
3 526 428 233 0 4
0 0 1 100
0 1 1 100
1 0 1 100
1 1 0 100
4 453 8 102 234 0 8
0 0 0 1 100
0 0 1 1 100
0 1 0 1 100
0 1 1 1 100
1 0 0 1 100
1 0 1 1 100
1 1 0 1 100
1 1 1 0 100
3 106 50 235 0 4
0 0 1 100
0 1 1 100
1 0 1 100
1 1 0 100
3 453 89 236 0 4
0 0 1 100
0 1 1 100
1 0 1 100
1 1 0 100
4 503 468 129 237 0 8
0 0 0 1 100
0 0 1 0 100
0 1 0 0 100
0 1 1 0 100
1 0 0 0 100
1 0 1 0 100
1 1 0 0 100
1 1 1 0 100
3 465 139 238 0 4
0 0 1 100
0 1 0 100
1 0 0 100
1 1 0 100
4 319 308 63 239 0 8
0 0 0 1 100
0 0 1 1 100
0 1 0 1 100
0 1 1 1 100
1 0 0 1 100
1 0 1 1 100
1 1 0 1 100
1 1 1 0 100
4 427 5 61 240 0 8
0 0 0 1 100
0 0 1 1 100
0 1 0 1 100
0 1 1 1 100
1 0 0 1 100
1 0 1 1 100
1 1 0 1 100
1 1 1 0 100
3 56 62 241 0 4
0 0 1 100
0 1 1 100
1 0 1 100
1 1 0 100
1 242 0 2
0 3
1 1
3 155 156 243 0 4
0 0 1 100
0 1 1 100
1 0 1 100
1 1 0 100
3 120 164 244 0 4
0 0 1 100
0 1 1 100
1 0 1 100
1 1 0 100
2 540 245 0 2
0 0 100
1 1 100
2 537 246 0 2
0 0 100
1 1 100
2 536 247 0 2
0 0 100
1 1 100
2 548 248 0 2
0 0 100
1 1 100
2 558 249 0 2
0 0 100
1 1 100
3 177 73 250 0 4
0 0 1 100
0 1 1 100
1 0 1 100
1 1 0 100
3 109 110 251 0 4
0 0 1 100
0 1 1 100
1 0 1 100
1 1 0 100
4 465 105 116 252 0 8
0 0 0 1 100
0 0 1 1 100
0 1 0 1 100
0 1 1 1 100
1 0 0 1 100
1 0 1 1 100
1 1 0 1 100
1 1 1 0 100
1 253 0 2
0 9
1 3
3 514 177 254 0 4
0 0 1 100
0 1 1 100
1 0 1 100
1 1 0 100
3 463 22 255 0 4
0 0 1 100
0 1 1 100
1 0 1 100
1 1 0 100
3 507 103 256 0 4
0 0 1 100
0 1 1 100
1 0 1 100
1 1 0 100
4 106 459 53 257 0 8
0 0 0 1 100
0 0 1 1 100
0 1 0 1 100
0 1 1 1 100
1 0 0 1 100
1 0 1 1 100
1 1 0 1 100
1 1 1 0 100
4 15 95 101 258 0 8
0 0 0 1 100
0 0 1 1 100
0 1 0 1 100
0 1 1 1 100
1 0 0 1 100
1 0 1 1 100
1 1 0 1 100
1 1 1 0 100
3 460 133 259 0 4
0 0 1 100
0 1 0 100
1 0 0 100
1 1 0 100
3 106 517 260 0 4
0 0 1 100
0 1 1 100
1 0 1 100
1 1 0 100
2 542 261 0 2
0 0 100
1 1 100
3 533 483 262 0 4
0 0 1 100
0 1 1 100
1 0 1 100
1 1 0 100
3 493 11 263 0 4
0 0 1 100
0 1 1 100
1 0 1 100
1 1 0 100
1 264 0 2
0 9
1 6
3 493 468 265 0 4
0 0 1 100
0 1 0 100
1 0 0 100
1 1 0 100
5 455 75 128 141 266 0 16
0 0 0 0 1 100
0 0 0 1 1 100
0 0 1 0 1 100
0 0 1 1 1 100
0 1 0 0 1 100
0 1 0 1 1 100
0 1 1 0 1 100
0 1 1 1 1 100
1 0 0 0 1 100
1 0 0 1 1 100
1 0 1 0 1 100
1 0 1 1 1 100
1 1 0 0 1 100
1 1 0 1 1 100
1 1 1 0 1 100
1 1 1 1 0 100
5 514 41 286 70 267 0 16
0 0 0 0 1 100
0 0 0 1 1 100
0 0 1 0 1 100
0 0 1 1 1 100
0 1 0 0 1 100
0 1 0 1 1 100
0 1 1 0 1 100
0 1 1 1 1 100
1 0 0 0 1 100
1 0 0 1 1 100
1 0 1 0 1 100
1 0 1 1 1 100
1 1 0 0 1 100
1 1 0 1 1 100
1 1 1 0 1 100
1 1 1 1 0 100
4 13 528 69 268 0 8
0 0 0 1 100
0 0 1 1 100
0 1 0 1 100
0 1 1 1 100
1 0 0 1 100
1 0 1 1 100
1 1 0 1 100
1 1 1 0 100
3 0 121 269 0 4
0 0 1 100
0 1 1 100
1 0 1 100
1 1 0 100
3 13 20 270 0 4
0 0 1 100
0 1 0 100
1 0 0 100
1 1 0 100
3 493 402 271 0 4
0 0 1 100
0 1 0 100
1 0 0 100
1 1 0 100
3 172 139 272 0 4
0 0 1 100
0 1 1 100
1 0 1 100
1 1 0 100
3 503 518 273 0 4
0 0 1 100
0 1 1 100
1 0 1 100
1 1 0 100
3 493 220 274 0 4
0 0 1 100
0 1 1 100
1 0 1 100
1 1 0 100
1 275 0 2
0 8
1 8
3 514 9 276 0 4
0 0 1 100
0 1 1 100
1 0 1 100
1 1 0 100
3 493 109 277 0 4
0 0 1 100
0 1 1 100
1 0 1 100
1 1 0 100
3 34 511 278 0 4
0 0 1 100
0 1 1 100
1 0 1 100
1 1 0 100
3 511 112 279 0 4
0 0 1 100
0 1 1 100
1 0 1 100
1 1 0 100
3 106 12 280 0 4
0 0 1 100
0 1 1 100
1 0 1 100
1 1 0 100
4 189 43 62 281 0 8
0 0 0 1 100
0 0 1 1 100
0 1 0 1 100
0 1 1 1 100
1 0 0 1 100
1 0 1 1 100
1 1 0 1 100
1 1 1 0 100
3 30 61 282 0 4
0 0 1 100
0 1 1 100
1 0 1 100
1 1 0 100
3 31 63 283 0 4
0 0 1 100
0 1 1 100
1 0 1 100
1 1 0 100
3 465 468 284 0 4
0 0 1 100
0 1 0 100
1 0 0 100
1 1 0 100
2 544 285 0 2
0 0 100
1 1 100
1 286 0 1
0 2
2 538 287 0 2
0 0 100
1 1 100
4 67 74 174 288 0 8
0 0 0 1 100
0 0 1 1 100
0 1 0 1 100
0 1 1 1 100
1 0 0 1 100
1 0 1 1 100
1 1 0 1 100
1 1 1 0 100
4 20 182 61 289 0 8
0 0 0 1 100
0 0 1 1 100
0 1 0 1 100
0 1 1 1 100
1 0 0 1 100
1 0 1 1 100
1 1 0 1 100
1 1 1 0 100
3 253 66 290 0 4
0 0 1 100
0 1 1 100
1 0 1 100
1 1 0 100
3 468 470 291 0 4
0 0 1 100
0 1 0 100
1 0 0 100
1 1 0 100
3 2 473 292 0 4
0 0 1 100
0 1 0 100
1 0 0 100
1 1 0 100
3 465 509 293 0 4
0 0 1 100
0 1 1 100
1 0 1 100
1 1 0 100
3 526 489 294 0 4
0 0 1 100
0 1 1 100
1 0 1 100
1 1 0 100
3 524 428 295 0 4
0 0 1 100
0 1 1 100
1 0 1 100
1 1 0 100
3 525 118 296 0 4
0 0 1 100
0 1 1 100
1 0 1 100
1 1 0 100
1 297 0 2
0 3
1 2
3 493 529 298 0 4
0 0 1 100
0 1 1 100
1 0 1 100
1 1 0 100
3 503 505 299 0 4
0 0 1 100
0 1 0 100
1 0 0 100
1 1 0 100
4 525 3 253 300 0 8
0 0 0 1 100
0 0 1 1 100
0 1 0 1 100
0 1 1 1 100
1 0 0 1 100
1 0 1 1 100
1 1 0 1 100
1 1 1 0 100
3 37 61 301 0 4
0 0 1 100
0 1 1 100
1 0 1 100
1 1 0 100
3 460 505 302 0 4
0 0 1 100
0 1 0 100
1 0 0 100
1 1 0 100
4 460 503 416 303 0 8
0 0 0 1 100
0 0 1 1 100
0 1 0 1 100
0 1 1 1 100
1 0 0 1 100
1 0 1 1 100
1 1 0 1 100
1 1 1 0 100
3 468 520 304 0 4
0 0 1 100
0 1 1 100
1 0 1 100
1 1 0 100
4 493 181 509 305 0 8
0 0 0 1 100
0 0 1 1 100
0 1 0 1 100
0 1 1 1 100
1 0 0 1 100
1 0 1 1 100
1 1 0 1 100
1 1 1 0 100
3 13 18 306 0 4
0 0 1 100
0 1 1 100
1 0 1 100
1 1 0 100
3 525 181 307 0 4
0 0 1 100
0 1 0 100
1 0 0 100
1 1 0 100
1 308 0 2
0 6
1 6
3 524 428 309 0 4
0 0 1 100
0 1 0 100
1 0 0 100
1 1 0 100
3 508 127 310 0 4
0 0 1 100
0 1 0 100
1 0 0 100
1 1 0 100
3 38 61 311 0 4
0 0 1 100
0 1 1 100
1 0 1 100
1 1 0 100
3 32 253 312 0 4
0 0 1 100
0 1 1 100
1 0 1 100
1 1 0 100
3 427 491 313 0 4
0 0 1 100
0 1 0 100
1 0 0 100
1 1 0 100
3 319 40 314 0 4
0 0 1 100
0 1 0 100
1 0 0 100
1 1 0 100
4 510 179 61 315 0 8
0 0 0 1 100
0 0 1 1 100
0 1 0 1 100
0 1 1 1 100
1 0 0 1 100
1 0 1 1 100
1 1 0 1 100
1 1 1 0 100
4 4 534 63 316 0 8
0 0 0 1 100
0 0 1 1 100
0 1 0 1 100
0 1 1 1 100
1 0 0 1 100
1 0 1 1 100
1 1 0 1 100
1 1 1 0 100
4 530 62 64 317 0 8
0 0 0 1 100
0 0 1 1 100
0 1 0 1 100
0 1 1 1 100
1 0 0 1 100
1 0 1 1 100
1 1 0 1 100
1 1 1 0 100
3 451 1 318 0 4
0 0 1 100
0 1 1 100
1 0 1 100
1 1 0 100
1 319 0 2
0 4
1 7
1 320 0 1
1 2
3 0 184 321 0 4
0 0 1 100
0 1 1 100
1 0 1 100
1 1 0 100
4 106 14 61 322 0 8
0 0 0 1 100
0 0 1 1 100
0 1 0 1 100
0 1 1 1 100
1 0 0 1 100
1 0 1 1 100
1 1 0 1 100
1 1 1 0 100
3 60 89 323 0 4
0 0 1 100
0 1 1 100
1 0 1 100
1 1 0 100
2 555 324 0 2
0 0 100
1 1 100
2 551 325 0 2
0 0 100
1 1 100
2 559 326 0 2
0 0 100
1 1 100
3 522 78 327 0 4
0 0 1 100
0 1 1 100
1 0 1 100
1 1 0 100
3 493 21 328 0 4
0 0 1 100
0 1 0 100
1 0 0 100
1 1 0 100
3 460 511 329 0 4
0 0 1 100
0 1 0 100
1 0 0 100
1 1 0 100
3 459 483 330 0 4
0 0 1 100
0 1 0 100
1 0 0 100
1 1 0 100
1 331 0 2
0 6
1 5
3 1 112 332 0 4
0 0 1 100
0 1 1 100
1 0 1 100
1 1 0 100
3 406 492 333 0 4
0 0 1 100
0 1 1 100
1 0 1 100
1 1 0 100
3 208 114 334 0 4
0 0 1 100
0 1 1 100
1 0 1 100
1 1 0 100
3 103 108 335 0 4
0 0 1 100
0 1 1 100
1 0 1 100
1 1 0 100
2 550 336 0 2
0 0 100
1 1 100
4 52 48 71 337 0 8
0 0 0 1 100
0 0 1 1 100
0 1 0 1 100
0 1 1 1 100
1 0 0 1 100
1 0 1 1 100
1 1 0 1 100
1 1 1 0 100
3 495 73 338 0 4
0 0 1 100
0 1 1 100
1 0 1 100
1 1 0 100
4 35 189 504 339 0 8
0 0 0 1 100
0 0 1 1 100
0 1 0 1 100
0 1 1 1 100
1 0 0 1 100
1 0 1 1 100
1 1 0 1 100
1 1 1 0 100
4 455 494 78 340 0 8
0 0 0 1 100
0 0 1 1 100
0 1 0 1 100
0 1 1 1 100
1 0 0 1 100
1 0 1 1 100
1 1 0 1 100
1 1 1 0 100
3 208 427 341 0 4
0 0 1 100
0 1 0 100
1 0 0 100
1 1 0 100
1 342 0 2
0 7
1 8
3 453 492 343 0 4
0 0 1 100
0 1 0 100
1 0 0 100
1 1 0 100
4 452 106 135 344 0 8
0 0 0 1 100
0 0 1 0 100
0 1 0 0 100
0 1 1 0 100
1 0 0 0 100
1 0 1 0 100
1 1 0 0 100
1 1 1 0 100
4 0 515 61 345 0 8
0 0 0 1 100
0 0 1 1 100
0 1 0 1 100
0 1 1 1 100
1 0 0 1 100
1 0 1 1 100
1 1 0 1 100
1 1 1 0 100
3 474 33 346 0 4
0 0 1 100
0 1 1 100
1 0 1 100
1 1 0 100
4 512 80 83 347 0 8
0 0 0 1 100
0 0 1 1 100
0 1 0 1 100
0 1 1 1 100
1 0 0 1 100
1 0 1 1 100
1 1 0 1 100
1 1 1 0 100
3 52 82 348 0 4
0 0 1 100
0 1 1 100
1 0 1 100
1 1 0 100
4 286 68 297 349 0 8
0 0 0 1 100
0 0 1 1 100
0 1 0 1 100
0 1 1 1 100
1 0 0 1 100
1 0 1 1 100
1 1 0 1 100
1 1 1 0 100
4 474 531 71 350 0 8
0 0 0 1 100
0 0 1 1 100
0 1 0 1 100
0 1 1 1 100
1 0 0 1 100
1 0 1 1 100
1 1 0 1 100
1 1 1 0 100
3 119 134 351 0 4
0 0 1 100
0 1 1 100
1 0 1 100
1 1 0 100
3 439 132 352 0 4
0 0 1 100
0 1 1 100
1 0 1 100
1 1 0 100
1 353 0 1
1 1
3 83 102 354 0 4
0 0 1 100
0 1 1 100
1 0 1 100
1 1 0 100
3 455 500 355 0 4
0 0 1 100
0 1 1 100
1 0 1 100
1 1 0 100
2 560 356 0 2
0 0 100
1 1 100
3 527 60 357 0 4
0 0 1 100
0 1 1 100
1 0 1 100
1 1 0 100
3 71 138 358 0 4
0 0 1 100
0 1 1 100
1 0 1 100
1 1 0 100
2 545 359 0 2
0 0 100
1 1 100
3 28 511 360 0 4
0 0 1 100
0 1 1 100
1 0 1 100
1 1 0 100
3 499 136 361 0 4
0 0 1 100
0 1 1 100
1 0 1 100
1 1 0 100
4 514 52 39 362 0 8
0 0 0 1 100
0 0 1 1 100
0 1 0 1 100
0 1 1 1 100
1 0 0 1 100
1 0 1 1 100
1 1 0 1 100
1 1 1 0 100
3 80 81 363 0 4
0 0 1 100
0 1 1 100
1 0 1 100
1 1 0 100
1 364 0 2
0 2
1 5
3 297 141 365 0 4
0 0 1 100
0 1 1 100
1 0 1 100
1 1 0 100
2 546 366 0 2
0 0 100
1 1 100
3 474 26 367 0 4
0 0 1 100
0 1 1 100
1 0 1 100
1 1 0 100
3 395 68 368 0 4
0 0 1 100
0 1 1 100
1 0 1 100
1 1 0 100
4 498 512 118 369 0 8
0 0 0 1 100
0 0 1 1 100
0 1 0 1 100
0 1 1 1 100
1 0 0 1 100
1 0 1 1 100
1 1 0 1 100
1 1 1 0 100
3 461 132 370 0 4
0 0 1 100
0 1 1 100
1 0 1 100
1 1 0 100
2 554 371 0 2
0 0 100
1 1 100
2 556 372 0 2
0 0 100
1 1 100
3 45 59 373 0 4
0 0 1 100
0 1 1 100
1 0 1 100
1 1 0 100
3 523 60 374 0 4
0 0 1 100
0 1 1 100
1 0 1 100
1 1 0 100
1 375 0 1
1 8
3 24 77 376 0 4
0 0 1 100
0 1 0 100
1 0 0 100
1 1 0 100
4 474 488 93 377 0 8
0 0 0 1 100
0 0 1 1 100
0 1 0 1 100
0 1 1 1 100
1 0 0 1 100
1 0 1 1 100
1 1 0 1 100
1 1 1 0 100
3 457 90 378 0 4
0 0 1 100
0 1 1 100
1 0 1 100
1 1 0 100
3 478 92 379 0 4
0 0 1 100
0 1 1 100
1 0 1 100
1 1 0 100
3 27 511 380 0 4
0 0 1 100
0 1 0 100
1 0 0 100
1 1 0 100
3 512 113 381 0 4
0 0 1 100
0 1 0 100
1 0 0 100
1 1 0 100
2 549 382 0 2
0 0 100
1 1 100
3 319 10 383 0 4
0 0 1 100
0 1 1 100
1 0 1 100
1 1 0 100
2 539 384 0 2
0 0 100
1 1 100
2 543 385 0 2
0 0 100
1 1 100
1 386 0 2
0 9
1 7
4 106 516 19 387 0 8
0 0 0 1 100
0 0 1 1 100
0 1 0 1 100
0 1 1 1 100
1 0 0 1 100
1 0 1 1 100
1 1 0 1 100
1 1 1 0 100
3 460 463 388 0 4
0 0 1 100
0 1 1 100
1 0 1 100
1 1 0 100
3 98 470 389 0 4
0 0 1 100
0 1 1 100
1 0 1 100
1 1 0 100
3 452 54 390 0 4
0 0 1 100
0 1 1 100
1 0 1 100
1 1 0 100
3 506 468 391 0 4
0 0 1 100
0 1 0 100
1 0 0 100
1 1 0 100
3 455 117 392 0 4
0 0 1 100
0 1 0 100
1 0 0 100
1 1 0 100
2 552 393 0 2
0 0 100
1 1 100
3 69 208 394 0 4
0 0 1 100
0 1 1 100
1 0 1 100
1 1 0 100
3 365 366 395 0 4
0 0 1 100
0 1 0 100
1 0 0 100
1 1 0 100
3 459 55 396 0 4
0 0 1 100
0 1 1 100
1 0 1 100
1 1 0 100
4 97 6 16 397 0 8
0 0 0 1 100
0 0 1 1 100
0 1 0 1 100
0 1 1 1 100
1 0 0 1 100
1 0 1 1 100
1 1 0 1 100
1 1 1 0 100
4 42 525 96 398 0 8
0 0 0 1 100
0 0 1 1 100
0 1 0 1 100
0 1 1 1 100
1 0 0 1 100
1 0 1 1 100
1 1 0 1 100
1 1 1 0 100
3 13 49 399 0 4
0 0 1 100
0 1 1 100
1 0 1 100
1 1 0 100
3 149 511 400 0 4
0 0 1 100
0 1 1 100
1 0 1 100
1 1 0 100
2 490 401 0 2
0 0 100
1 1 100
2 209 402 0 2
0 0 100
1 1 100
2 183 403 0 2
0 0 100
1 1 100
2 186 404 0 2
0 0 100
1 1 100
2 100 405 0 2
0 0 100
1 1 100
4 328 329 330 406 0 8
0 0 0 0 100
0 0 1 0 100
0 1 0 0 100
0 1 1 0 100
1 0 0 0 100
1 0 1 0 100
1 1 0 0 100
1 1 1 1 100
2 85 407 0 2
0 0 100
1 1 100
2 148 408 0 2
0 0 100
1 1 100
2 88 409 0 2
0 0 100
1 1 100
2 209 410 0 2
0 0 100
1 1 100
2 183 411 0 2
0 0 100
1 1 100
2 501 412 0 2
0 0 100
1 1 100
2 466 413 0 2
0 0 100
1 1 100
2 78 414 0 2
0 0 100
1 1 100
2 180 415 0 2
0 0 100
1 1 100
3 525 470 416 0 4
0 0 0 100
0 1 0 100
1 0 0 100
1 1 1 100
2 96 417 0 2
0 0 100
1 1 100
2 100 418 0 2
0 0 100
1 1 100
2 496 419 0 2
0 0 100
1 1 100
2 477 420 0 2
0 0 100
1 1 100
2 79 421 0 2
0 0 100
1 1 100
2 180 422 0 2
0 0 100
1 1 100
2 94 423 0 2
0 0 100
1 1 100
2 112 424 0 2
0 0 100
1 1 100
2 101 425 0 2
0 0 100
1 1 100
2 187 426 0 2
0 0 100
1 1 100
1 427 0 2
0 9
1 4
2 416 428 0 2
0 0 100
1 1 100
2 79 429 0 2
0 0 100
1 1 100
2 62 430 0 2
0 0 100
1 1 100
3 360 361 431 0 4
0 0 0 100
0 1 1 100
1 0 1 100
1 1 1 100
3 193 470 432 0 4
0 0 0 100
0 1 0 100
1 0 0 100
1 1 1 100
3 200 201 433 0 4
0 0 0 100
0 1 0 100
1 0 0 100
1 1 1 100
4 210 211 87 434 0 8
0 0 0 0 100
0 0 1 0 100
0 1 0 0 100
0 1 1 0 100
1 0 0 0 100
1 0 1 0 100
1 1 0 0 100
1 1 1 1 100
3 222 223 435 0 4
0 0 0 100
0 1 1 100
1 0 1 100
1 1 1 100
4 226 24 413 436 0 8
0 0 0 0 100
0 0 1 1 100
0 1 0 1 100
0 1 1 1 100
1 0 0 1 100
1 0 1 1 100
1 1 0 1 100
1 1 1 1 100
3 229 230 437 0 4
0 0 0 100
0 1 0 100
1 0 0 100
1 1 1 100
3 244 427 438 0 4
0 0 0 100
0 1 1 100
1 0 1 100
1 1 1 100
3 167 144 439 0 4
0 0 0 100
0 1 0 100
1 0 0 100
1 1 1 100
3 265 142 440 0 4
0 0 0 100
0 1 0 100
1 0 0 100
1 1 1 100
3 69 70 441 0 4
0 0 1 100
0 1 1 100
1 0 1 100
1 1 0 100
3 221 140 442 0 4
0 0 0 100
0 1 0 100
1 0 0 100
1 1 1 100
3 276 277 443 0 4
0 0 0 100
0 1 1 100
1 0 1 100
1 1 1 100
4 289 290 404 444 0 8
0 0 0 0 100
0 0 1 1 100
0 1 0 1 100
0 1 1 1 100
1 0 0 1 100
1 0 1 1 100
1 1 0 1 100
1 1 1 1 100
3 305 306 445 0 4
0 0 0 100
0 1 1 100
1 0 1 100
1 1 1 100
4 332 333 334 446 0 8
0 0 0 0 100
0 0 1 1 100
0 1 0 1 100
0 1 1 1 100
1 0 0 1 100
1 0 1 1 100
1 1 0 1 100
1 1 1 1 100
3 351 352 447 0 4
0 0 0 100
0 1 1 100
1 0 1 100
1 1 1 100
4 376 91 153 448 0 8
0 0 0 0 100
0 0 1 0 100
0 1 0 0 100
0 1 1 0 100
1 0 0 0 100
1 0 1 0 100
1 1 0 0 100
1 1 1 1 100
5 387 388 389 390 449 0 16
0 0 0 0 0 100
0 0 0 1 1 100
0 0 1 0 1 100
0 0 1 1 1 100
0 1 0 0 1 100
0 1 0 1 1 100
0 1 1 0 1 100
0 1 1 1 1 100
1 0 0 0 1 100
1 0 0 1 1 100
1 0 1 0 1 100
1 0 1 1 1 100
1 1 0 0 1 100
1 1 0 1 1 100
1 1 1 0 1 100
1 1 1 1 1 100
4 206 207 126 450 0 8
0 0 0 0 100
0 0 1 0 100
0 1 0 0 100
0 1 1 0 100
1 0 0 0 100
1 0 1 0 100
1 1 0 0 100
1 1 1 1 100
2 0 451 0 2
0 0 100
1 1 100
2 1 452 0 2
0 0 100
1 1 100
2 106 453 0 2
0 0 100
1 1 100
4 161 162 115 454 0 8
0 0 0 0 100
0 0 1 0 100
0 1 0 0 100
0 1 1 0 100
1 0 0 0 100
1 0 1 0 100
1 1 0 0 100
1 1 1 1 100
2 208 455 0 2
0 0 100
1 1 100
2 457 456 0 2
0 0 100
1 1 100
4 1 106 47 457 0 8
0 0 0 0 100
0 0 1 0 100
0 1 0 0 100
0 1 1 0 100
1 0 0 0 100
1 0 1 0 100
1 1 0 0 100
1 1 1 1 100
2 319 458 0 2
0 0 100
1 1 100
2 427 459 0 2
0 0 100
1 1 100
2 493 460 0 2
0 0 100
1 1 100
3 171 144 461 0 4
0 0 0 100
0 1 0 100
1 0 0 100
1 1 1 100
3 322 323 462 0 4
0 0 1 100
0 1 0 100
1 0 0 100
1 1 0 100
2 503 463 0 2
0 0 100
1 1 100
3 345 346 464 0 4
0 0 1 100
0 1 0 100
1 0 0 100
1 1 0 100
2 514 465 0 2
0 0 100
1 1 100
4 204 205 72 466 0 8
0 0 0 0 100
0 0 1 0 100
0 1 0 0 100
0 1 1 0 100
1 0 0 0 100
1 0 1 0 100
1 1 0 0 100
1 1 1 1 100
3 356 357 467 0 4
0 0 1 100
0 1 0 100
1 0 0 100
1 1 0 100
2 525 468 0 2
0 0 100
1 1 100
3 373 374 469 0 4
0 0 1 100
0 1 0 100
1 0 0 100
1 1 0 100
2 2 470 0 2
0 0 100
1 1 100
4 377 378 379 471 0 8
0 0 0 1 100
0 0 1 0 100
0 1 0 0 100
0 1 1 0 100
1 0 0 0 100
1 0 1 0 100
1 1 0 0 100
1 1 1 0 100
3 319 493 472 0 4
0 0 0 100
0 1 0 100
1 0 0 100
1 1 1 100
2 13 473 0 2
0 0 100
1 1 100
2 24 474 0 2
0 0 100
1 1 100
4 150 151 186 475 0 8
0 0 0 0 100
0 0 1 0 100
0 1 0 0 100
0 1 1 0 100
1 0 0 0 100
1 0 1 0 100
1 1 0 0 100
1 1 1 1 100
2 35 476 0 2
0 0 100
1 1 100
3 257 258 477 0 4
0 0 1 100
0 1 0 100
1 0 0 100
1 1 0 100
2 477 478 0 2
0 0 100
1 1 100
2 331 479 0 2
0 0 100
1 1 100
3 300 301 480 0 4
0 0 1 100
0 1 0 100
1 0 0 100
1 1 0 100
3 311 312 481 0 4
0 0 1 100
0 1 0 100
1 0 0 100
1 1 0 100
5 315 316 317 403 482 0 16
0 0 0 0 1 100
0 0 0 1 0 100
0 0 1 0 0 100
0 0 1 1 0 100
0 1 0 0 0 100
0 1 0 1 0 100
0 1 1 0 0 100
0 1 1 1 0 100
1 0 0 0 0 100
1 0 0 1 0 100
1 0 1 0 0 100
1 0 1 1 0 100
1 1 0 0 0 100
1 1 0 1 0 100
1 1 1 0 0 100
1 1 1 1 0 100
2 472 483 0 2
0 0 100
1 1 100
5 196 198 199 411 484 0 16
0 0 0 0 1 100
0 0 0 1 0 100
0 0 1 0 0 100
0 0 1 1 0 100
0 1 0 0 0 100
0 1 0 1 0 100
0 1 1 0 0 100
0 1 1 1 0 100
1 0 0 0 0 100
1 0 0 1 0 100
1 0 1 0 0 100
1 0 1 1 0 100
1 1 0 0 0 100
1 1 0 1 0 100
1 1 1 0 0 100
1 1 1 1 0 100
4 239 240 241 485 0 8
0 0 0 1 100
0 0 1 0 100
0 1 0 0 100
0 1 1 0 100
1 0 0 0 100
1 0 1 0 100
1 1 0 0 100
1 1 1 0 100
4 281 282 283 486 0 8
0 0 0 1 100
0 0 1 0 100
0 1 0 0 100
0 1 1 0 100
1 0 0 0 100
1 0 1 0 100
1 1 0 0 100
1 1 1 0 100
4 234 235 236 487 0 8
0 0 0 1 100
0 0 1 0 100
0 1 0 0 100
0 1 1 0 100
1 0 0 0 100
1 0 1 0 100
1 1 0 0 100
1 1 1 0 100
2 487 488 0 2
0 0 100
1 1 100
3 291 292 489 0 4
0 0 0 100
0 1 0 100
1 0 0 100
1 1 1 100
3 0 106 490 0 4
0 0 0 100
0 1 0 100
1 0 0 100
1 1 1 100
3 1 208 491 0 4
0 0 0 100
0 1 0 100
1 0 0 100
1 1 1 100
2 491 492 0 2
0 0 100
1 1 100
1 493 0 2
0 3
1 8
3 335 336 494 0 4
0 0 1 100
0 1 0 100
1 0 0 100
1 1 0 100
3 326 327 495 0 4
0 0 1 100
0 1 0 100
1 0 0 100
1 1 0 100
3 466 231 496 0 4
0 0 0 100
0 1 0 100
1 0 0 100
1 1 1 100
3 509 514 497 0 4
0 0 0 100
0 1 0 100
1 0 0 100
1 1 1 100
2 497 498 0 2
0 0 100
1 1 100
3 34 4 499 0 4
0 0 0 100
0 1 0 100
1 0 0 100
1 1 1 100
2 364 500 0 2
0 0 100
1 1 100
3 212 459 501 0 4
0 0 0 100
0 1 0 100
1 0 0 100
1 1 1 100
4 341 343 140 502 0 8
0 0 0 0 100
0 0 1 0 100
0 1 0 0 100
0 1 1 0 100
1 0 0 0 100
1 0 1 0 100
1 1 0 0 100
1 1 1 1 100
1 503 0 2
0 4
1 4
2 353 504 0 2
0 0 100
1 1 100
3 514 2 505 0 4
0 0 0 100
0 1 0 100
1 0 0 100
1 1 1 100
2 505 506 0 2
0 0 100
1 1 100
3 252 254 507 0 4
0 0 1 100
0 1 0 100
1 0 0 100
1 1 0 100
3 525 13 508 0 4
0 0 0 100
0 1 0 100
1 0 0 100
1 1 1 100
2 508 509 0 2
0 0 100
1 1 100
3 0 208 510 0 4
0 0 0 100
0 1 0 100
1 0 0 100
1 1 1 100
3 319 459 511 0 4
0 0 0 100
0 1 0 100
1 0 0 100
1 1 1 100
2 511 512 0 2
0 0 100
1 1 100
3 369 370 513 0 4
0 0 1 100
0 1 0 100
1 0 0 100
1 1 0 100
1 514 0 2
0 9
1 3
4 344 133 163 515 0 8
0 0 0 0 100
0 0 1 0 100
0 1 0 0 100
0 1 1 0 100
1 0 0 0 100
1 0 1 0 100
1 1 0 0 100
1 1 1 1 100
3 195 147 516 0 4
0 0 1 100
0 1 1 100
1 0 1 100
1 1 0 100
3 247 248 517 0 4
0 0 0 100
0 1 0 100
1 0 0 100
1 1 1 100
3 270 271 518 0 4
0 0 0 100
0 1 0 100
1 0 0 100
1 1 1 100
3 285 287 519 0 4
0 0 0 100
0 1 0 100
1 0 0 100
1 1 1 100
3 302 146 520 0 4
0 0 0 100
0 1 0 100
1 0 0 100
1 1 1 100
3 483 208 521 0 4
0 0 0 100
0 1 0 100
1 0 0 100
1 1 1 100
2 521 522 0 2
0 0 100
1 1 100
3 371 372 523 0 4
0 0 1 100
0 1 0 100
1 0 0 100
1 1 0 100
3 463 514 524 0 4
0 0 0 100
0 1 0 100
1 0 0 100
1 1 1 100
1 525 0 2
0 2
1 6
2 524 526 0 2
0 0 100
1 1 100
3 354 355 527 0 4
0 0 1 100
0 1 0 100
1 0 0 100
1 1 0 100
3 266 267 528 0 4
0 0 1 100
0 1 0 100
1 0 0 100
1 1 0 100
4 293 294 295 529 0 8
0 0 0 1 100
0 0 1 0 100
0 1 0 0 100
0 1 1 0 100
1 0 0 0 100
1 0 1 0 100
1 1 0 0 100
1 1 1 0 100
4 168 87 169 530 0 8
0 0 0 0 100
0 0 1 0 100
0 1 0 0 100
0 1 1 0 100
1 0 0 0 100
1 0 1 0 100
1 1 0 0 100
1 1 1 1 100
3 347 348 531 0 4
0 0 1 100
0 1 0 100
1 0 0 100
1 1 0 100
3 224 225 532 0 4
0 0 0 100
0 1 0 100
1 0 0 100
1 1 1 100
3 106 427 533 0 4
0 0 0 100
0 1 0 100
1 0 0 100
1 1 1 100
2 533 534 0 2
0 0 100
1 1 100
2 197 535 0 2
0 0 100
1 1 100
2 319 536 0 2
0 0 100
1 1 100
2 459 537 0 2
0 0 100
1 1 100
2 470 538 0 2
0 0 100
1 1 100
2 116 539 0 2
0 0 100
1 1 100
2 145 540 0 2
0 0 100
1 1 100
2 179 541 0 2
0 0 100
1 1 100
2 41 542 0 2
0 0 100
1 1 100
2 104 543 0 2
0 0 100
1 1 100
2 146 544 0 2
0 0 100
1 1 100
2 41 545 0 2
0 0 100
1 1 100
2 143 546 0 2
0 0 100
1 1 100
2 511 547 0 2
0 0 100
1 1 100
2 1 548 0 2
0 0 100
1 1 100
2 451 549 0 2
0 0 100
1 1 100
2 105 550 0 2
0 0 100
1 1 100
2 125 551 0 2
0 0 100
1 1 100
2 29 552 0 2
0 0 100
1 1 100
2 393 553 0 2
0 0 100
1 1 100
2 513 554 0 2
0 0 100
1 1 100
2 82 555 0 2
0 0 100
1 1 100
2 81 556 0 2
0 0 100
1 1 100
2 25 557 0 2
0 0 100
1 1 100
2 94 558 0 2
0 0 100
1 1 100
2 80 559 0 2
0 0 100
1 1 100
2 51 560 0 2
0 0 100
1 1 100
